c turning on binary mode checking
c parsing input formula with 259840 variables and 1039924 clauses
c finished parsing, read 2595542 bytes from proof file
c detected empty clause; start verification via backward checking
c 2041 of 1039924 clauses in core                            
c 716 of 107244 lemmas in core using 14515 resolution steps
c 0 RAT lemmas in core; 37 redundant literals in core lemmas
s VERIFIED
c verification time: 1.147 seconds
